1643700600
1643730900
1643785200
1643815800
1643873400
1643895900
1643957100
1643994000
1644216000
1644249600
1644305160
1644316200
1644323400
1644336000
1644390000
1644419700
1644475560
1644506160
1644561540
1644592140
1644821700
1644853500
1644908160
1644939120
1644994200
1645025400
1645080300
1645112700
1645167300
1645198200
1645435800
1645459200
1645515000
1645545600
1645601400
1645632300
1645686900
1645717500
1645774200
1645804500
